opl/stable_marriage2.dat
// From 
// http://www.csee.wvu.edu/~ksmani/courses/fa01/random/lecnotes/lecture5.pdf
n = 4;
rankMen = 
[[1,2,3,4],
 [2,1,3,4],
 [1,4,3,2],
 [4,3,1,2]
];

rankWomen =
[[1,2,3,4],
 [4,3,2,1],
 [1,2,3,4],
 [3,4,1,2]
];
